(assert (forall ((pkt_0_8_a_0  Int  )(pkt_1_9_b_0  Int  )(pkt_2_a_c_0  Int  )(pkt_3_b_d_0  Int  )(pkt_4_c_e_0  Int  )(state_group_0_state_0_d_f_0  Int  )(state_group_0_state_1_e_10_0  Int  )) (let ((_n0 state_group_0_state_1_e_10_0 ))
(let ((_n1 pkt_4_c_e_0 ))
(let ((_n2 (=   _n1   _n0 ) ))
(let ((_n3 state_group_0_state_0_d_f_0 ))
(let ((_n4 pkt_3_b_d_0 ))
(let ((_n5 (<   _n4   _n3 ) ))
(let ((_n6 (not  _n5 ) ))
(let ((_n7 (and   _n6   _n2 ) ))
(let ((_n8 (or   _n5   _n7 ) ))
(let ((_n9 (ite  _n8   _n4   _n3  ) ))
(let ((_n10 false ))
(let ((_n11 (-  _n1 )))
(let ((_n12 (+   _n0   _n11 ) ))
(let ((_n13 (=   _n12   (ite  _n10  1 0) ) ))
(let ((_n14 2 ))
(let ((_n15 (ite (=  _n12  0)  (ite  _n10  1 0)   _n1  ) ))
(let ((_n16 (-  _n15 )))
(let ((_n17 (=   _n16   _n14 ) ))
(let ((_n18 (not  _n17 ) ))
(let ((_n19 (not  _n13 ) ))
(let ((_n20 (and   _n19   _n18 ) ))
(let ((_n21 (not  _n20 ) ))
(let ((_n22 (or   _n21   _n13 ) ))
(let ((_n23 true ))
(let ((_n24 (ite  _n22   (ite  _n10  1 0)   _n4  ) ))
(let ((_n25 (-  _n24 )))
(let ((_n26 (ite  _n22   (ite  _n10  1 0)   _n3  ) ))
(let ((_n27 (+   _n26   _n25 ) ))
(let ((_n28 (<   _n27   (ite  _n23  1 0) ) ))
(let ((_n29 (ite  _n22   _n10   _n28  ) ))
(let ((_n30 (or   _n29   _n22 ) ))
(let ((_n31 (ite  _n30   (ite  _n10  1 0)   _n4  ) ))
(let ((_n32 (ite  _n30   _n3   (ite  _n10  1 0)  ) ))
(let ((_n33 (+   _n32   _n31 ) ))
(let ((_n34 (ite (=  (ite  _n29  1 0)  1)  _n3   _n33  ) ))
(let ((_n35 (ite (=  (ite  _n20  1 0)  1)  _n34   _n3  ) ))
(let ((_n36 3 ))
(let ((_n37 (ite (=  _n12  0)  _n3   (ite  _n10  1 0)  ) ))
(let ((_n38 (<   _n37   _n36 ) ))
(let ((_n39 (ite (=  _n12  0)  _n38   _n10  ) ))
(let ((_n40 (or   _n39   _n19 ) ))
(let ((_n41 (ite  _n40   (ite  _n10  1 0)   _n36  ) ))
(let ((_n42 (-  _n41 )))
(let ((_n43 (ite  _n40   (ite  _n10  1 0)   _n4  ) ))
(let ((_n44 (+   _n43   _n42 ) ))
(let ((_n45 (ite  _n40   (ite  _n10  1 0)   _n44  ) ))
(let ((_n46 (+   _n3   _n45 ) ))
(let ((_n47 (and   _n39   _n13 ) ))
(let ((_n48 (ite  _n47   _n4   (ite  _n10  1 0)  ) ))
(let ((_n49 (ite  _n47   (ite  _n10  1 0)   _n3  ) ))
(let ((_n50 (+   _n49   _n48 ) ))
(let ((_n51 (ite (=  (ite  _n39  1 0)  1)  _n50   _n46  ) ))
(let ((_n52 (ite (=  (ite  _n13  1 0)  1)  _n51   _n35  ) ))
(let ((_n53 (=   _n52   _n9 ) ))
(let ((_n55 (ite  _n5   _n1   _n0  ) ))
(let ((_n56 (ite  _n30   (ite  _n10  1 0)   _n1  ) ))
(let ((_n57 (ite  _n30   _n0   (ite  _n10  1 0)  ) ))
(let ((_n58 (+   _n57   _n56 ) ))
(let ((_n59 (ite (=  (ite  _n29  1 0)  1)  _n0   _n58  ) ))
(let ((_n60 (ite (=  (ite  _n20  1 0)  1)  _n59   _n0  ) ))
(let ((_n61 (ite (=  (ite  _n13  1 0)  1)  _n0   _n60  ) ))
(let ((_n62 (=   _n61   _n55 ) ))
(let ((_n64 pkt_0_8_a_0 ))
(let ((_n65 (ite (=  _n64  0)  (ite  _n10  1 0)   _n64  ) ))
(let ((_n66 (=   _n65   _n64 ) ))
(let ((_n68 (<   _n64   (ite  _n10  1 0) ) ))
(let ((_n69 (ite  _n68   (ite  _n10  1 0)   _n64  ) ))
(let ((_n70 (=   _n64   _n69 ) ))
(let ((_n72 (=   _n65   _n69 ) ))
(let ((_n74 (ite (=  _n1  0)  (ite  _n10  1 0)   _n1  ) ))
(let ((_n75 (=   _n74   _n1 ) ))
(let ((_n77 pkt_1_9_b_0 ))
(let ((_n78 pkt_2_a_c_0 ))
(implies  (and (and (>= state_group_0_state_1_e_10_0 0) (< state_group_0_state_1_e_10_0 1024 ))  (and (and (>= state_group_0_state_0_d_f_0 0) (< state_group_0_state_0_d_f_0 1024 ))  (and (and (>= pkt_4_c_e_0 0) (< pkt_4_c_e_0 1024 ))  (and (and (>= pkt_3_b_d_0 0) (< pkt_3_b_d_0 1024 ))  (and (and (>= pkt_2_a_c_0 0) (< pkt_2_a_c_0 1024 ))  (and (and (>= pkt_1_9_b_0 0) (< pkt_1_9_b_0 1024 ))  (and (>= pkt_0_8_a_0 0) (< pkt_0_8_a_0 1024 )) ) ) ) ) ) )   (and  _n53  _n62  _n66  _n70  _n72  _n75 )  ))))))))))))))))))))))))))))))))))))))))))))))))))))))))))))))))))))))))))))
(check-sat)
(get-model)
(exit)